p cnf 24 45                 
3 -22 0
4 -22 0
2 -21 0
3 -21 0
4 -21 0
2 -20 0
4 -20 0
2 -19 0
3 -19 0
1 -18 0
2 -18 0
3 -18 0
4 -18 0
1 -17 0
3 -17 0
4 -17 0
1 -16 0
2 -16 0
4 -16 0
1 -15 0
2 -15 0
3 -15 0
1 -14 0
4 -14 0
1 -13 0
3 -13 0
1 -12 0
2 -12 0
22 21 20 19 18 17 16 15 14 13 12 23 0
-2 -1 -5 0
5 -11 0
-1 6 0
-2 6 0
1 2 -6 0
-6 -3 -7 0
7 -11 0
-3 8 0
-6 8 0
3 6 -8 0
-8 -4 -9 0
9 -11 0
4 8 -10 0
10 -11 0
-23 0
11 0
